
c turning on binary mode checking

c parsing input formula with 86 variables and 344 clauses

c finished parsing, read 2221 bytes from proof file

c detected empty clause; start verification via backward checking

c 137 of 344 clauses in core                            

c 68 of 176 lemmas in core using 440 resolution steps

c 0 RAT lemmas in core; 0 redundant literals in core lemmas

s VERIFIED

c verification time: 0.120 seconds
